TERM = { '.', 's(2)', 's(5)', 's(4)', 'in_1', 'local_0', 's(9)', 'in_2', 'in_4', 'in_3', 's(8)', 's(6)', 's(1)', 's(0)', 's(7)', 's(3)', 'in_0'};
null = '.';
s = 14;
n = 10;
ndeps = 11;
max_registers_sz = 4;
NR = 1;
registers = [|'local_0', 's(7)'|];
dependencies = [|'i32.load16_s_1', 'i32.store8_2', |'i32.store8_2', 'i32.load16_u_3', |'i32.store8_2', 'i32.load16_s_4', |'i32.store8_2', 'i32.load16_s_6', |'call[function_index(0)]_7', 'i32.load_12', |'call[function_index(0)]_7', 'i32.load8_u_13', |'call[function_index(0)]_7', 'i32.load16_s_8', |'call[function_index(0)]_7', 'i32.load8_u_9', |'i32.load16_u_3', 'call[function_index(0)]_7', |'i32.load16_s_4', 'call[function_index(0)]_7', |'i32.load16_s_6', 'call[function_index(0)]_7'|];
GET_ENUM = { GET1, GET2, GET3, GET4, GET5};
SET_ENUM = { SET1, SET2, SET3, SET4, SET5};
TEE_ENUM = { TEE1, TEE2, TEE3, TEE4, TEE5};
N = 11;
OP = { 'call[function_index(0)]_7', 'i32.add_0', 'i32.load16_s_1', 'i32.store8_2', 'i32.load16_u_3', 'i32.load16_s_4', 'i32.load16_s_6', 'i32.load16_s_8', 'i32.load8_u_9', 'i32.load_12', 'i32.load8_u_13' };
in_ops = [0, 2, 1, 2, 1, 1, 1, 1, 1, 1, 1 ];
out_ops = [1, 1, 1, 0, 1, 1, 1, 1, 1, 1, 1 ];
in1 = ['.', 'in_0', 's(0)', 's(1)', 'in_3', 's(2)', 'in_4', 's(5)', 's(6)', 's(7)', 's(8)' ];
in2 = ['.', 'in_1', '.', 'in_2', '.', '.', '.', '.', '.', '.', '.' ];
in3 = ['.', '.', '.', '.', '.', '.', '.', '.', '.', '.', '.' ];
out1 = ['s(5)', 's(0)', 's(1)', '.', 's(2)', 's(3)', 's(4)', 's(6)', 's(7)', 's(8)', 's(9)' ];
out2 = ['.', '.', '.', '.', '.', '.', '.', '.', '.', '.', '.' ];
out3 = ['.', '.', '.', '.', '.', '.', '.', '.', '.', '.', '.' ];
comm = [false, true, false, false, false, false, false, false, false, false, false ];
gas = [1, 1, 1, 1, 1, 1, 1, 1, 1, 1, 1 ];
sz = [1, 1, 1, 1, 1, 1, 1, 1, 1, 1, 1 ];
stor = [true, false, false, true, false, false, false, false, false, false, false ];
lb = [ 1, 1, 1, 1, 1, 1, 1, 1, 1, 1, 1 ];
ub = [ 14, 14, 14, 14, 14, 14, 14, 14, 14, 14, 14 ];
startstack = [ 'in_0', 'in_1', 'in_2', 'in_3', 'in_4', null, null, null, null, null ];
endstack = [ 's(9)', 's(4)', null, null, null, null, null, null, null, null ];
